proyfinal/src/viki/013/experimentInOfficeAgust.take6.output/a72d1bed-4907-4b7c-985d-ac6a4a10a501.als.dat
{'cnf.clauses': '118081',
 'cnf.totvars': '69608',
 'conflict literals': '0',
 'conflicts': '0',
 'decisions': '0',
 'memused.mb': '14.95',
 'outcome': 'UNSAT',
 'propagations': '13335',
 'restarts': '0',
 'solver.msecs': 28,
 'task.msecs': 95}
