proyfinal/src/viki/013/experimentInOfficeAgust.take6.output/a72d1bed-4907-4b7c-985d-ac6a4a10a501.als.out
Reading from standard input... Use '--help' for help.
============================[ Problem Statistics ]=============================
|                                                                             |
|  Number of variables:         69608                                         |
|  Number of clauses:          118081                                         |
|  Parse time:                   0.02 s                                       |
|                                                                             |
===============================================================================
Solved by unit propagation
restarts              : 0
conflicts             : 0              (0 /sec)
decisions             : 0              ( nan % random) (0 /sec)
propagations          : 13335          (473594 /sec)
conflict literals     : 0              ( nan % deleted)
Memory used           : 14.95 MB
CPU time              : 0.028157 s

UNSATISFIABLE
